Maximize

7 y_0 + 9 y_1 + 5 y_2


Subject To

a0: x_0_0 + x_0_1 + x_0_2 <= 10
a1: x_1_0 + x_1_1 + x_1_2 <= 5
a2: x_2_0 + x_2_1 + x_2_2 <= 8
a3: x_3_0 + x_3_1 + x_3_2 <= 2
a4: x_4_0 + x_4_1 + x_4_2 <= 5
b0: x_0_0 + x_3_0 - 2 y_0 = 0
b1: x_1_0 - 0 y_0 = 0
b2: x_2_0 - 5 y_0 = 0
b3: x_4_0 - 0 y_0 = 0
b4: x_0_1 + x_3_1 - 8 y_1 = 0
b5: x_1_1 - 4 y_1 = 0
b6: x_2_1 - 3 y_1 = 0
b7: x_4_1 - 0 y_1 = 0
b8: x_0_2 + x_3_2 - 2 y_2 = 0
b9: x_1_2 - 0 y_2 = 0
b10: x_2_2 - 0 y_2 = 0
b11: x_4_2 - 7 y_2 = 0



Bounds


x_0_0 <= 11
x_0_1 <= 6
x_0_2 <= 9
x_1_0 <= 11
x_1_1 <= 6
x_1_2 <= 9
x_2_0 <= 11
x_2_1 <= 6
x_2_2 <= 9
x_3_0 <= 11
x_3_1 <= 6
x_3_2 <= 9
x_4_0 <= 11
x_4_1 <= 6
x_4_2 <= 9




General

 x_0_0 x_0_1 x_0_2 x_1_0 x_1_1 x_1_2 x_2_0 x_2_1 x_2_2 x_3_0 x_3_1 x_3_2 x_4_0 x_4_1 x_4_2



End
